nN = 5;
nR = 15;
nH = 1;

a = [[9, 10, 15, 8, 17, 8, 19, 9, 10, 23, 5, 5, 7, 15, 13], [7, 24, 10, 20, 24, 19, 16, 19, 13, 24, 8, 25, 22, 19, 10], [16, 20, 15, 6, 12, 17, 22, 24, 12, 15, 11, 24, 8, 15, 17], [25, 13, 5, 5, 16, 22, 15, 25, 8, 17, 19, 24, 25, 9, 10], [20, 6, 25, 6, 9, 10, 17, 24, 12, 11, 23, 12, 19, 17, 21]];
c = [[[0, 0, 0, 0, 0, 0, 0, 0, 0, 0, 0, 0, 0, 0, 0], [49, 31, 39, 35, 49, 33, 39, 35, 45, 30, 45, 47, 43, 41, 36], [36, 30, 50, 33, 43, 40, 35, 32, 45, 44, 50, 44, 44, 42, 33], [39, 46, 47, 35, 49, 31, 31, 48, 30, 30, 32, 32, 49, 43, 50], [38, 44, 45, 49, 35, 35, 36, 43, 47, 45, 47, 48, 39, 43, 31]], [[0, 0, 0, 0, 0, 0, 0, 0, 0, 0, 0, 0, 0, 0, 0], [0, 0, 0, 0, 0, 0, 0, 0, 0, 0, 0, 0, 0, 0, 0], [46, 31, 46, 41, 48, 46, 34, 40, 31, 40, 40, 31, 34, 45, 48], [33, 30, 40, 34, 42, 31, 43, 35, 32, 48, 38, 32, 35, 46, 34], [33, 32, 31, 31, 30, 32, 42, 40, 34, 36, 39, 34, 42, 44, 36]], [[0, 0, 0, 0, 0, 0, 0, 0, 0, 0, 0, 0, 0, 0, 0], [0, 0, 0, 0, 0, 0, 0, 0, 0, 0, 0, 0, 0, 0, 0], [0, 0, 0, 0, 0, 0, 0, 0, 0, 0, 0, 0, 0, 0, 0], [42, 48, 32, 32, 38, 47, 33, 49, 49, 45, 43, 40, 40, 32, 46], [40, 45, 39, 32, 38, 38, 48, 32, 42, 39, 40, 49, 44, 39, 43]], [[0, 0, 0, 0, 0, 0, 0, 0, 0, 0, 0, 0, 0, 0, 0], [0, 0, 0, 0, 0, 0, 0, 0, 0, 0, 0, 0, 0, 0, 0], [0, 0, 0, 0, 0, 0, 0, 0, 0, 0, 0, 0, 0, 0, 0], [0, 0, 0, 0, 0, 0, 0, 0, 0, 0, 0, 0, 0, 0, 0], [34, 42, 31, 41, 48, 40, 47, 38, 42, 30, 33, 39, 41, 47, 41]], [[0, 0, 0, 0, 0, 0, 0, 0, 0, 0, 0, 0, 0, 0, 0], [0, 0, 0, 0, 0, 0, 0, 0, 0, 0, 0, 0, 0, 0, 0], [0, 0, 0, 0, 0, 0, 0, 0, 0, 0, 0, 0, 0, 0, 0], [0, 0, 0, 0, 0, 0, 0, 0, 0, 0, 0, 0, 0, 0, 0], [0, 0, 0, 0, 0, 0, 0, 0, 0, 0, 0, 0, 0, 0, 0]]];
Q = [[36], [36], [34], [34], [33]];

q = [[[8], [22], [21], [25], [11], [20], [22], [13], [19], [7], [15], [10], [11], [10], [8]], [[17], [22], [25], [10], [10], [21], [21], [8], [18], [7], [15], [21], [8], [17], [5]], [[19], [24], [24], [5], [10], [24], [6], [17], [5], [11], [20], [7], [12], [20], [6]], [[21], [8], [24], [10], [20], [14], [21], [15], [6], [12], [9], [14], [12], [12], [12]], [[11], [12], [9], [7], [16], [10], [20], [9], [22], [12], [19], [6], [19], [6], [23]]];
p = [0.46, 0.86, 0.51, 0.23, 0.04, 0.44, 0.07, 0.15, 0.03, 0.13, 0.58, 0.27, 0.95, 0.01, 0.64];
